p edge 250 3111
e 1 3
e 1 5
e 1 18
e 1 28
e 1 30
e 1 47
e 1 55
e 1 72
e 1 78
e 1 85
e 1 90
e 1 110
e 1 111
e 1 117
e 1 124
e 1 125
e 1 126
e 1 132
e 1 133
e 1 153
e 1 158
e 1 160
e 1 173
e 1 189
e 1 208
e 1 209
e 1 215
e 1 216
e 1 240
e 1 243
e 1 250
e 2 7
e 2 8
e 2 12
e 2 13
e 2 24
e 2 32
e 2 56
e 2 64
e 2 86
e 2 92
e 2 98
e 2 112
e 2 128
e 2 129
e 2 139
e 2 167
e 2 171
e 2 181
e 2 208
e 2 225
e 2 229
e 2 233
e 2 241
e 3 32
e 3 38
e 3 55
e 3 61
e 3 71
e 3 83
e 3 86
e 3 92
e 3 112
e 3 125
e 3 150
e 3 156
e 3 159
e 3 162
e 3 177
e 3 210
e 3 218
e 3 231
e 4 13
e 4 24
e 4 32
e 4 34
e 4 35
e 4 36
e 4 49
e 4 51
e 4 52
e 4 68
e 4 74
e 4 93
e 4 95
e 4 113
e 4 129
e 4 137
e 4 164
e 4 176
e 4 193
e 4 208
e 4 226
e 4 235
e 4 241
e 4 247
e 5 12
e 5 13
e 5 19
e 5 20
e 5 22
e 5 28
e 5 40
e 5 61
e 5 62
e 5 91
e 5 104
e 5 105
e 5 107
e 5 122
e 5 151
e 5 154
e 5 168
e 5 182
e 5 193
e 5 194
e 5 202
e 5 204
e 5 209
e 5 214
e 5 226
e 5 235
e 5 247
e 6 23
e 6 40
e 6 62
e 6 64
e 6 66
e 6 70
e 6 82
e 6 83
e 6 93
e 6 98
e 6 115
e 6 117
e 6 121
e 6 122
e 6 132
e 6 173
e 6 197
e 6 213
e 6 214
e 6 234
e 6 237
e 6 239
e 7 32
e 7 41
e 7 63
e 7 65
e 7 85
e 7 86
e 7 111
e 7 114
e 7 117
e 7 129
e 7 155
e 7 162
e 7 163
e 7 166
e 7 183
e 7 190
e 7 193
e 7 203
e 7 209
e 7 212
e 7 216
e 7 218
e 7 222
e 7 233
e 7 238
e 7 240
e 8 10
e 8 34
e 8 47
e 8 49
e 8 69
e 8 97
e 8 108
e 8 113
e 8 119
e 8 136
e 8 188
e 8 201
e 8 205
e 8 209
e 8 220
e 8 237
e 9 30
e 9 32
e 9 33
e 9 37
e 9 40
e 9 42
e 9 46
e 9 53
e 9 69
e 9 74
e 9 139
e 9 148
e 9 151
e 9 152
e 9 153
e 9 155
e 9 189
e 9 196
e 9 206
e 9 207
e 9 218
e 10 11
e 10 16
e 10 31
e 10 42
e 10 57
e 10 66
e 10 67
e 10 77
e 10 99
e 10 117
e 10 120
e 10 123
e 10 128
e 10 173
e 10 178
e 10 180
e 10 181
e 10 207
e 10 239
e 10 247
e 11 40
e 11 41
e 11 44
e 11 47
e 11 58
e 11 67
e 11 71
e 11 73
e 11 78
e 11 95
e 11 102
e 11 108
e 11 115
e 11 117
e 11 118
e 11 123
e 11 135
e 11 136
e 11 138
e 11 140
e 11 149
e 11 151
e 11 158
e 11 169
e 11 214
e 11 218
e 11 221
e 11 240
e 12 16
e 12 26
e 12 35
e 12 40
e 12 63
e 12 65
e 12 68
e 12 72
e 12 78
e 12 91
e 12 107
e 12 108
e 12 110
e 12 120
e 12 152
e 12 163
e 12 166
e 12 185
e 12 187
e 13 36
e 13 40
e 13 44
e 13 50
e 13 53
e 13 55
e 13 56
e 13 65
e 13 81
e 13 86
e 13 104
e 13 111
e 13 120
e 13 123
e 13 125
e 13 131
e 13 138
e 13 139
e 13 169
e 13 178
e 13 198
e 13 199
e 13 200
e 13 202
e 13 220
e 13 229
e 13 236
e 14 17
e 14 18
e 14 26
e 14 28
e 14 33
e 14 35
e 14 57
e 14 71
e 14 74
e 14 78
e 14 86
e 14 87
e 14 102
e 14 110
e 14 124
e 14 128
e 14 137
e 14 194
e 14 201
e 14 213
e 14 224
e 15 28
e 15 33
e 15 58
e 15 82
e 15 87
e 15 96
e 15 132
e 15 135
e 15 139
e 15 145
e 15 153
e 15 156
e 15 172
e 15 183
e 15 198
e 15 201
e 15 202
e 15 203
e 15 205
e 16 26
e 16 27
e 16 30
e 16 37
e 16 45
e 16 58
e 16 59
e 16 70
e 16 75
e 16 90
e 16 92
e 16 101
e 16 133
e 16 153
e 16 174
e 16 187
e 16 204
e 16 208
e 16 216
e 16 217
e 16 218
e 16 219
e 16 230
e 16 241
e 16 248
e 17 20
e 17 22
e 17 26
e 17 28
e 17 34
e 17 52
e 17 59
e 17 74
e 17 79
e 17 100
e 17 110
e 17 113
e 17 120
e 17 124
e 17 126
e 17 139
e 17 145
e 17 155
e 17 160
e 17 172
e 17 175
e 17 177
e 17 194
e 17 195
e 17 220
e 17 230
e 17 234
e 17 240
e 18 19
e 18 25
e 18 26
e 18 28
e 18 29
e 18 41
e 18 47
e 18 52
e 18 54
e 18 55
e 18 63
e 18 73
e 18 83
e 18 91
e 18 104
e 18 106
e 18 120
e 18 129
e 18 131
e 18 146
e 18 156
e 18 164
e 18 170
e 18 175
e 18 197
e 18 216
e 18 220
e 18 242
e 18 244
e 19 23
e 19 24
e 19 35
e 19 47
e 19 69
e 19 80
e 19 96
e 19 99
e 19 108
e 19 140
e 19 142
e 19 171
e 19 198
e 19 206
e 19 209
e 19 211
e 19 214
e 19 227
e 19 233
e 19 234
e 19 242
e 19 249
e 20 21
e 20 30
e 20 46
e 20 50
e 20 57
e 20 63
e 20 74
e 20 80
e 20 86
e 20 92
e 20 98
e 20 118
e 20 121
e 20 141
e 20 148
e 20 153
e 20 169
e 20 171
e 20 185
e 20 234
e 20 244
e 20 248
e 21 46
e 21 47
e 21 50
e 21 53
e 21 61
e 21 70
e 21 84
e 21 87
e 21 96
e 21 124
e 21 135
e 21 141
e 21 152
e 21 162
e 21 195
e 21 240
e 21 242
e 21 244
e 21 249
e 22 27
e 22 50
e 22 76
e 22 77
e 22 93
e 22 102
e 22 105
e 22 110
e 22 118
e 22 135
e 22 141
e 22 144
e 22 146
e 22 155
e 22 165
e 22 172
e 22 176
e 22 178
e 22 187
e 22 205
e 22 208
e 22 210
e 22 211
e 22 214
e 22 223
e 23 26
e 23 28
e 23 40
e 23 49
e 23 55
e 23 85
e 23 93
e 23 99
e 23 125
e 23 138
e 23 139
e 23 140
e 23 154
e 23 169
e 23 179
e 23 181
e 23 184
e 23 198
e 23 205
e 23 231
e 23 239
e 23 244
e 24 48
e 24 52
e 24 59
e 24 65
e 24 81
e 24 87
e 24 89
e 24 95
e 24 113
e 24 124
e 24 126
e 24 127
e 24 147
e 24 149
e 24 161
e 24 171
e 24 181
e 24 227
e 24 242
e 25 80
e 25 98
e 25 102
e 25 105
e 25 109
e 25 116
e 25 122
e 25 127
e 25 146
e 25 149
e 25 157
e 25 186
e 25 190
e 25 199
e 25 201
e 25 222
e 25 234
e 26 52
e 26 59
e 26 64
e 26 74
e 26 75
e 26 76
e 26 78
e 26 91
e 26 121
e 26 123
e 26 164
e 26 179
e 26 180
e 26 182
e 26 183
e 26 189
e 26 198
e 26 201
e 26 203
e 26 209
e 26 235
e 26 245
e 26 248
e 26 249
e 26 250
e 27 30
e 27 42
e 27 52
e 27 58
e 27 60
e 27 68
e 27 73
e 27 77
e 27 85
e 27 101
e 27 116
e 27 119
e 27 138
e 27 161
e 27 164
e 27 174
e 27 179
e 27 188
e 27 192
e 27 195
e 27 214
e 27 229
e 27 239
e 27 242
e 27 248
e 28 46
e 28 54
e 28 60
e 28 64
e 28 73
e 28 88
e 28 97
e 28 102
e 28 105
e 28 108
e 28 110
e 28 116
e 28 128
e 28 152
e 28 160
e 28 186
e 28 193
e 28 209
e 28 227
e 28 231
e 28 233
e 28 238
e 29 35
e 29 36
e 29 59
e 29 64
e 29 87
e 29 109
e 29 116
e 29 124
e 29 147
e 29 158
e 29 167
e 29 182
e 29 202
e 29 210
e 29 215
e 29 217
e 29 219
e 29 228
e 29 238
e 29 244
e 29 246
e 29 250
e 30 32
e 30 36
e 30 56
e 30 61
e 30 66
e 30 77
e 30 83
e 30 86
e 30 88
e 30 89
e 30 99
e 30 115
e 30 120
e 30 133
e 30 137
e 30 164
e 30 174
e 30 194
e 30 207
e 30 214
e 30 220
e 30 239
e 30 240
e 31 45
e 31 70
e 31 78
e 31 84
e 31 94
e 31 103
e 31 111
e 31 149
e 31 187
e 31 196
e 31 205
e 31 213
e 31 249
e 32 45
e 32 59
e 32 86
e 32 88
e 32 90
e 32 100
e 32 106
e 32 107
e 32 123
e 32 126
e 32 131
e 32 135
e 32 149
e 32 157
e 32 158
e 32 168
e 32 177
e 32 182
e 32 184
e 32 198
e 32 200
e 32 210
e 32 215
e 32 217
e 33 54
e 33 72
e 33 89
e 33 102
e 33 107
e 33 119
e 33 129
e 33 132
e 33 135
e 33 140
e 33 144
e 33 151
e 33 158
e 33 181
e 33 211
e 33 221
e 33 236
e 33 239
e 34 61
e 34 70
e 34 83
e 34 87
e 34 98
e 34 102
e 34 104
e 34 115
e 34 119
e 34 137
e 34 142
e 34 171
e 34 181
e 34 183
e 34 186
e 34 188
e 34 197
e 34 201
e 34 204
e 34 211
e 34 214
e 34 234
e 35 48
e 35 86
e 35 87
e 35 94
e 35 106
e 35 112
e 35 120
e 35 132
e 35 135
e 35 163
e 35 166
e 35 180
e 35 195
e 35 208
e 35 236
e 35 247
e 36 40
e 36 43
e 36 47
e 36 50
e 36 67
e 36 75
e 36 80
e 36 85
e 36 98
e 36 102
e 36 103
e 36 105
e 36 121
e 36 130
e 36 136
e 36 144
e 36 163
e 36 165
e 36 168
e 36 174
e 36 188
e 36 200
e 36 214
e 36 215
e 36 243
e 36 249
e 37 41
e 37 46
e 37 50
e 37 75
e 37 76
e 37 83
e 37 131
e 37 132
e 37 136
e 37 158
e 37 166
e 37 173
e 37 195
e 37 203
e 37 206
e 37 212
e 37 219
e 37 225
e 37 227
e 37 242
e 37 243
e 37 246
e 38 47
e 38 59
e 38 63
e 38 69
e 38 74
e 38 83
e 38 95
e 38 108
e 38 117
e 38 133
e 38 134
e 38 135
e 38 140
e 38 148
e 38 155
e 38 159
e 38 167
e 38 174
e 38 194
e 38 195
e 38 199
e 38 217
e 38 218
e 38 220
e 38 223
e 38 241
e 39 50
e 39 52
e 39 61
e 39 68
e 39 76
e 39 80
e 39 82
e 39 121
e 39 122
e 39 136
e 39 140
e 39 170
e 39 180
e 39 203
e 40 42
e 40 61
e 40 72
e 40 78
e 40 88
e 40 110
e 40 133
e 40 138
e 40 157
e 40 163
e 40 166
e 40 179
e 40 195
e 40 206
e 40 231
e 41 52
e 41 65
e 41 71
e 41 76
e 41 83
e 41 97
e 41 119
e 41 123
e 41 127
e 41 142
e 41 152
e 41 158
e 41 176
e 41 190
e 41 193
e 41 202
e 41 211
e 41 220
e 41 230
e 41 234
e 41 238
e 41 240
e 41 247
e 42 48
e 42 67
e 42 68
e 42 75
e 42 97
e 42 106
e 42 108
e 42 137
e 42 139
e 42 159
e 42 162
e 42 166
e 42 189
e 42 196
e 42 203
e 42 214
e 42 226
e 42 230
e 42 231
e 42 232
e 43 50
e 43 51
e 43 75
e 43 92
e 43 116
e 43 123
e 43 129
e 43 134
e 43 150
e 43 158
e 43 172
e 43 173
e 43 192
e 43 209
e 43 223
e 43 234
e 43 244
e 44 48
e 44 64
e 44 65
e 44 82
e 44 101
e 44 116
e 44 127
e 44 130
e 44 161
e 44 173
e 44 193
e 44 199
e 44 204
e 44 208
e 44 212
e 44 227
e 44 245
e 45 71
e 45 76
e 45 82
e 45 106
e 45 127
e 45 138
e 45 160
e 45 162
e 45 171
e 45 183
e 45 186
e 45 189
e 45 195
e 45 200
e 45 224
e 45 231
e 46 55
e 46 74
e 46 88
e 46 100
e 46 101
e 46 116
e 46 127
e 46 142
e 46 153
e 46 164
e 46 174
e 46 177
e 46 180
e 46 186
e 46 188
e 46 191
e 46 195
e 46 226
e 46 229
e 47 63
e 47 75
e 47 87
e 47 98
e 47 101
e 47 104
e 47 105
e 47 109
e 47 115
e 47 124
e 47 127
e 47 134
e 47 152
e 47 153
e 47 163
e 47 168
e 47 171
e 47 173
e 47 174
e 47 197
e 47 200
e 47 206
e 47 215
e 47 221
e 47 232
e 47 242
e 48 61
e 48 63
e 48 80
e 48 81
e 48 92
e 48 96
e 48 97
e 48 103
e 48 128
e 48 133
e 48 135
e 48 166
e 48 188
e 48 189
e 48 194
e 48 195
e 48 199
e 48 204
e 48 209
e 48 219
e 48 236
e 48 248
e 48 249
e 49 56
e 49 69
e 49 78
e 49 83
e 49 86
e 49 98
e 49 119
e 49 124
e 49 131
e 49 153
e 49 157
e 49 194
e 49 202
e 49 237
e 49 244
e 49 249
e 50 72
e 50 98
e 50 101
e 50 103
e 50 119
e 50 120
e 50 134
e 50 153
e 50 183
e 50 201
e 50 215
e 50 216
e 50 232
e 50 233
e 50 240
e 50 250
e 51 54
e 51 57
e 51 63
e 51 65
e 51 68
e 51 75
e 51 77
e 51 110
e 51 111
e 51 127
e 51 132
e 51 146
e 51 181
e 51 189
e 51 190
e 51 191
e 51 196
e 51 202
e 51 205
e 51 210
e 51 213
e 51 231
e 51 235
e 51 241
e 52 56
e 52 60
e 52 66
e 52 68
e 52 87
e 52 93
e 52 110
e 52 113
e 52 127
e 52 130
e 52 152
e 52 196
e 52 197
e 52 224
e 52 238
e 52 246
e 53 61
e 53 64
e 53 73
e 53 74
e 53 85
e 53 86
e 53 92
e 53 104
e 53 110
e 53 116
e 53 150
e 53 157
e 53 163
e 53 223
e 53 226
e 53 227
e 53 237
e 54 76
e 54 90
e 54 100
e 54 104
e 54 132
e 54 143
e 54 146
e 54 149
e 54 152
e 54 163
e 54 164
e 54 166
e 54 168
e 54 171
e 54 176
e 54 186
e 54 193
e 54 201
e 54 209
e 54 224
e 54 238
e 54 243
e 55 78
e 55 99
e 55 114
e 55 143
e 55 161
e 55 172
e 55 173
e 55 187
e 55 192
e 55 193
e 55 195
e 55 197
e 55 203
e 55 213
e 55 220
e 55 238
e 56 62
e 56 66
e 56 72
e 56 84
e 56 91
e 56 98
e 56 105
e 56 109
e 56 113
e 56 130
e 56 149
e 56 158
e 56 171
e 56 173
e 56 185
e 56 219
e 56 245
e 56 246
e 57 62
e 57 64
e 57 82
e 57 90
e 57 112
e 57 126
e 57 130
e 57 147
e 57 168
e 57 174
e 57 200
e 57 209
e 57 210
e 57 217
e 57 224
e 58 61
e 58 69
e 58 71
e 58 72
e 58 94
e 58 111
e 58 118
e 58 120
e 58 121
e 58 130
e 58 151
e 58 160
e 58 162
e 58 169
e 58 176
e 58 180
e 58 196
e 58 218
e 58 225
e 58 227
e 58 229
e 58 239
e 59 64
e 59 65
e 59 78
e 59 96
e 59 108
e 59 117
e 59 148
e 59 164
e 59 166
e 59 168
e 59 177
e 59 193
e 59 197
e 59 205
e 59 213
e 59 218
e 59 220
e 59 231
e 60 62
e 60 71
e 60 79
e 60 82
e 60 86
e 60 88
e 60 91
e 60 98
e 60 136
e 60 173
e 60 177
e 60 184
e 60 187
e 60 188
e 60 196
e 60 205
e 60 207
e 60 211
e 60 214
e 60 224
e 60 225
e 60 237
e 60 247
e 60 249
e 61 72
e 61 83
e 61 101
e 61 117
e 61 121
e 61 130
e 61 157
e 61 166
e 61 167
e 61 169
e 61 177
e 61 193
e 61 194
e 61 209
e 61 235
e 61 236
e 61 245
e 62 68
e 62 82
e 62 98
e 62 108
e 62 112
e 62 124
e 62 125
e 62 128
e 62 138
e 62 143
e 62 146
e 62 151
e 62 152
e 62 169
e 62 175
e 62 178
e 62 202
e 62 209
e 62 210
e 62 223
e 62 231
e 62 233
e 63 65
e 63 74
e 63 78
e 63 103
e 63 104
e 63 127
e 63 134
e 63 167
e 63 178
e 63 189
e 63 198
e 63 202
e 63 203
e 63 208
e 63 212
e 63 228
e 63 236
e 64 74
e 64 76
e 64 78
e 64 87
e 64 94
e 64 100
e 64 101
e 64 103
e 64 104
e 64 115
e 64 117
e 64 132
e 64 133
e 64 134
e 64 139
e 64 145
e 64 166
e 64 181
e 64 182
e 64 185
e 64 197
e 64 201
e 64 221
e 64 225
e 64 243
e 65 66
e 65 77
e 65 106
e 65 115
e 65 122
e 65 146
e 65 152
e 65 157
e 65 160
e 65 167
e 65 171
e 65 183
e 65 195
e 65 197
e 65 204
e 65 209
e 65 215
e 65 241
e 65 243
e 66 69
e 66 78
e 66 81
e 66 100
e 66 109
e 66 112
e 66 124
e 66 130
e 66 135
e 66 138
e 66 140
e 66 143
e 66 144
e 66 150
e 66 173
e 66 176
e 66 195
e 66 222
e 66 236
e 66 245
e 67 77
e 67 91
e 67 98
e 67 112
e 67 115
e 67 140
e 67 145
e 67 146
e 67 148
e 67 199
e 67 200
e 67 201
e 67 210
e 67 213
e 67 224
e 67 234
e 67 240
e 67 249
e 67 250
e 68 72
e 68 76
e 68 83
e 68 89
e 68 94
e 68 96
e 68 98
e 68 103
e 68 111
e 68 116
e 68 124
e 68 129
e 68 139
e 68 146
e 68 158
e 68 161
e 68 162
e 68 164
e 68 175
e 68 194
e 68 195
e 68 197
e 68 210
e 68 224
e 68 229
e 68 240
e 68 241
e 68 245
e 68 248
e 69 87
e 69 96
e 69 100
e 69 131
e 69 132
e 69 170
e 69 177
e 69 188
e 69 190
e 69 194
e 69 195
e 69 196
e 69 203
e 69 219
e 69 244
e 69 246
e 69 249
e 70 72
e 70 73
e 70 94
e 70 111
e 70 123
e 70 132
e 70 141
e 70 157
e 70 167
e 70 172
e 70 178
e 70 181
e 70 183
e 70 187
e 70 191
e 70 200
e 70 208
e 70 211
e 70 212
e 70 214
e 70 223
e 70 225
e 70 226
e 70 228
e 71 76
e 71 77
e 71 86
e 71 95
e 71 132
e 71 138
e 71 161
e 71 166
e 71 173
e 71 175
e 71 195
e 71 210
e 71 222
e 71 234
e 71 243
e 71 244
e 71 248
e 72 103
e 72 110
e 72 111
e 72 158
e 72 167
e 72 190
e 72 195
e 72 197
e 72 198
e 72 208
e 72 209
e 72 214
e 72 216
e 72 223
e 72 229
e 72 236
e 72 249
e 73 90
e 73 114
e 73 118
e 73 132
e 73 142
e 73 151
e 73 152
e 73 169
e 73 175
e 73 182
e 73 185
e 73 196
e 73 209
e 73 238
e 73 249
e 74 82
e 74 88
e 74 103
e 74 121
e 74 127
e 74 130
e 74 144
e 74 178
e 74 179
e 74 187
e 74 189
e 74 195
e 74 212
e 74 219
e 74 221
e 74 228
e 74 232
e 74 234
e 74 249
e 75 83
e 75 85
e 75 92
e 75 117
e 75 123
e 75 124
e 75 129
e 75 134
e 75 135
e 75 149
e 75 150
e 75 155
e 75 215
e 75 216
e 75 218
e 75 226
e 75 235
e 75 240
e 76 78
e 76 95
e 76 146
e 76 157
e 76 159
e 76 175
e 76 189
e 76 197
e 76 214
e 76 221
e 76 223
e 76 240
e 76 243
e 76 245
e 77 109
e 77 111
e 77 139
e 77 143
e 77 171
e 77 210
e 77 236
e 78 84
e 78 86
e 78 88
e 78 96
e 78 110
e 78 114
e 78 119
e 78 136
e 78 153
e 78 165
e 78 168
e 78 208
e 78 222
e 78 232
e 78 234
e 78 237
e 78 248
e 79 101
e 79 116
e 79 117
e 79 124
e 79 147
e 79 155
e 79 161
e 79 189
e 79 207
e 79 210
e 79 212
e 79 215
e 79 222
e 79 231
e 79 235
e 79 237
e 79 249
e 80 83
e 80 105
e 80 107
e 80 110
e 80 121
e 80 130
e 80 136
e 80 148
e 80 163
e 80 169
e 80 172
e 80 195
e 80 201
e 80 211
e 80 212
e 80 214
e 80 227
e 80 250
e 81 86
e 81 95
e 81 109
e 81 110
e 81 112
e 81 125
e 81 126
e 81 131
e 81 133
e 81 181
e 81 199
e 81 200
e 81 203
e 81 215
e 81 222
e 81 227
e 81 239
e 81 248
e 82 90
e 82 96
e 82 113
e 82 119
e 82 133
e 82 134
e 82 170
e 82 171
e 82 186
e 82 208
e 82 210
e 82 215
e 82 217
e 82 225
e 83 84
e 83 90
e 83 95
e 83 101
e 83 113
e 83 136
e 83 144
e 83 155
e 83 170
e 83 178
e 83 179
e 83 180
e 83 196
e 83 213
e 83 240
e 83 247
e 84 91
e 84 96
e 84 97
e 84 106
e 84 107
e 84 108
e 84 110
e 84 115
e 84 120
e 84 127
e 84 176
e 84 194
e 84 206
e 84 216
e 84 217
e 84 219
e 84 229
e 85 90
e 85 91
e 85 95
e 85 101
e 85 125
e 85 128
e 85 131
e 85 135
e 85 136
e 85 145
e 85 146
e 85 150
e 85 169
e 85 175
e 85 188
e 85 189
e 85 216
e 85 221
e 85 230
e 86 89
e 86 114
e 86 133
e 86 140
e 86 148
e 86 149
e 86 153
e 86 165
e 86 186
e 86 205
e 86 214
e 86 229
e 86 232
e 86 233
e 86 241
e 86 245
e 87 88
e 87 97
e 87 99
e 87 106
e 87 126
e 87 153
e 87 159
e 87 172
e 87 197
e 87 198
e 87 208
e 87 213
e 87 219
e 87 221
e 87 230
e 87 231
e 87 240
e 88 90
e 88 95
e 88 124
e 88 140
e 88 149
e 88 169
e 88 173
e 88 197
e 88 217
e 88 218
e 89 100
e 89 102
e 89 108
e 89 128
e 89 142
e 89 157
e 89 160
e 89 166
e 89 172
e 89 175
e 89 184
e 89 200
e 89 232
e 89 234
e 89 239
e 89 242
e 90 91
e 90 99
e 90 126
e 90 138
e 90 139
e 90 147
e 90 173
e 90 181
e 90 183
e 90 194
e 90 202
e 90 204
e 90 206
e 90 207
e 90 218
e 90 220
e 90 221
e 90 227
e 90 234
e 90 235
e 90 245
e 91 116
e 91 146
e 91 161
e 91 178
e 91 180
e 91 189
e 91 191
e 91 206
e 91 209
e 91 211
e 91 224
e 91 247
e 92 97
e 92 101
e 92 103
e 92 129
e 92 158
e 92 160
e 92 172
e 92 189
e 92 202
e 92 204
e 92 206
e 92 209
e 92 217
e 92 229
e 93 117
e 93 129
e 93 147
e 93 156
e 93 171
e 93 192
e 93 217
e 93 219
e 93 221
e 93 250
e 94 102
e 94 112
e 94 117
e 94 131
e 94 137
e 94 138
e 94 139
e 94 143
e 94 163
e 94 171
e 94 177
e 94 183
e 94 196
e 94 197
e 94 209
e 94 218
e 94 223
e 94 232
e 94 237
e 94 246
e 95 107
e 95 118
e 95 128
e 95 131
e 95 133
e 95 141
e 95 144
e 95 153
e 95 154
e 95 161
e 95 176
e 95 184
e 95 193
e 95 202
e 95 219
e 95 244
e 96 106
e 96 118
e 96 134
e 96 136
e 96 137
e 96 144
e 96 147
e 96 154
e 96 165
e 96 174
e 96 184
e 96 186
e 96 201
e 96 212
e 96 227
e 96 233
e 96 246
e 96 249
e 97 125
e 97 135
e 97 146
e 97 149
e 97 151
e 97 158
e 97 160
e 97 167
e 97 174
e 97 190
e 97 193
e 97 194
e 97 199
e 97 208
e 97 219
e 98 99
e 98 122
e 98 137
e 98 153
e 98 166
e 98 217
e 98 218
e 98 223
e 98 227
e 98 235
e 98 241
e 98 250
e 99 102
e 99 107
e 99 109
e 99 123
e 99 124
e 99 128
e 99 136
e 99 158
e 99 162
e 99 165
e 99 202
e 99 203
e 99 204
e 99 220
e 99 221
e 99 236
e 99 246
e 99 248
e 100 106
e 100 114
e 100 121
e 100 127
e 100 130
e 100 142
e 100 152
e 100 170
e 100 171
e 100 181
e 100 201
e 100 206
e 100 212
e 100 220
e 100 224
e 100 235
e 101 105
e 101 111
e 101 117
e 101 143
e 101 156
e 101 163
e 101 169
e 101 172
e 101 176
e 101 181
e 101 211
e 101 219
e 101 224
e 101 240
e 101 243
e 101 248
e 102 114
e 102 117
e 102 137
e 102 144
e 102 187
e 102 209
e 102 220
e 102 222
e 102 235
e 102 244
e 102 245
e 103 104
e 103 111
e 103 122
e 103 123
e 103 125
e 103 127
e 103 132
e 103 144
e 103 145
e 103 152
e 103 164
e 103 169
e 103 191
e 103 196
e 103 197
e 103 199
e 103 209
e 103 233
e 103 244
e 104 128
e 104 134
e 104 142
e 104 160
e 104 162
e 104 166
e 104 170
e 104 174
e 104 176
e 104 181
e 104 190
e 104 194
e 104 195
e 104 199
e 104 203
e 104 208
e 104 217
e 104 225
e 104 231
e 104 234
e 105 132
e 105 133
e 105 156
e 105 172
e 105 182
e 105 187
e 105 202
e 105 204
e 105 214
e 105 216
e 105 220
e 105 230
e 105 242
e 105 248
e 106 121
e 106 125
e 106 128
e 106 130
e 106 151
e 106 161
e 106 177
e 106 178
e 106 182
e 106 198
e 106 201
e 106 210
e 106 218
e 106 224
e 106 231
e 106 238
e 106 245
e 107 124
e 107 148
e 107 149
e 107 152
e 107 157
e 107 166
e 107 189
e 107 199
e 107 204
e 107 208
e 107 212
e 107 218
e 107 232
e 107 239
e 107 241
e 107 245
e 107 247
e 107 248
e 108 123
e 108 126
e 108 132
e 108 137
e 108 144
e 108 150
e 108 157
e 108 200
e 108 226
e 108 229
e 108 234
e 108 243
e 109 112
e 109 126
e 109 136
e 109 138
e 109 147
e 109 148
e 109 149
e 109 150
e 109 167
e 109 181
e 109 205
e 109 206
e 109 211
e 109 215
e 109 219
e 109 231
e 109 232
e 109 238
e 109 249
e 110 111
e 110 122
e 110 125
e 110 138
e 110 142
e 110 147
e 110 169
e 110 174
e 110 184
e 110 200
e 110 211
e 110 217
e 110 218
e 110 222
e 110 234
e 110 243
e 110 246
e 110 248
e 111 120
e 111 122
e 111 126
e 111 134
e 111 135
e 111 136
e 111 142
e 111 150
e 111 156
e 111 157
e 111 181
e 111 190
e 111 198
e 111 202
e 111 215
e 111 223
e 111 234
e 111 236
e 112 120
e 112 126
e 112 128
e 112 134
e 112 141
e 112 148
e 112 160
e 112 171
e 112 174
e 112 184
e 112 190
e 112 192
e 112 194
e 112 197
e 113 117
e 113 119
e 113 120
e 113 143
e 113 149
e 113 161
e 113 167
e 113 170
e 113 173
e 113 175
e 113 194
e 113 217
e 113 224
e 113 231
e 113 237
e 114 116
e 114 117
e 114 121
e 114 136
e 114 164
e 114 178
e 114 182
e 114 184
e 114 189
e 114 202
e 114 206
e 114 213
e 114 217
e 114 224
e 114 229
e 114 247
e 114 248
e 115 120
e 115 132
e 115 140
e 115 141
e 115 155
e 115 165
e 115 169
e 115 173
e 115 174
e 115 175
e 115 184
e 115 214
e 115 219
e 115 223
e 115 226
e 115 229
e 115 237
e 116 118
e 116 119
e 116 123
e 116 130
e 116 151
e 116 159
e 116 174
e 116 182
e 116 185
e 116 186
e 116 195
e 116 200
e 116 214
e 116 222
e 116 223
e 116 236
e 117 129
e 117 142
e 117 144
e 117 151
e 117 156
e 117 164
e 117 188
e 117 237
e 117 245
e 117 248
e 117 249
e 118 126
e 118 159
e 118 161
e 118 170
e 118 194
e 118 196
e 118 198
e 118 202
e 118 208
e 118 213
e 118 216
e 118 225
e 118 227
e 118 233
e 119 122
e 119 125
e 119 134
e 119 136
e 119 147
e 119 156
e 119 166
e 119 167
e 119 183
e 119 188
e 119 195
e 119 209
e 119 214
e 119 219
e 119 231
e 119 232
e 119 240
e 120 136
e 120 140
e 120 145
e 120 170
e 120 183
e 120 185
e 120 192
e 120 196
e 120 198
e 120 204
e 120 207
e 120 219
e 120 223
e 120 227
e 120 247
e 121 125
e 121 148
e 121 163
e 121 165
e 121 182
e 121 189
e 121 197
e 121 199
e 121 202
e 121 210
e 121 214
e 121 230
e 121 232
e 121 235
e 121 236
e 121 240
e 122 131
e 122 136
e 122 138
e 122 148
e 122 149
e 122 163
e 122 173
e 122 211
e 122 221
e 122 224
e 122 226
e 122 239
e 122 244
e 123 135
e 123 136
e 123 137
e 123 165
e 123 175
e 123 183
e 123 185
e 123 195
e 123 204
e 123 212
e 123 213
e 123 224
e 123 249
e 124 142
e 124 143
e 124 145
e 124 153
e 124 167
e 124 169
e 124 171
e 124 189
e 124 196
e 124 205
e 124 208
e 124 222
e 124 242
e 125 139
e 125 143
e 125 144
e 125 149
e 125 158
e 125 174
e 125 182
e 125 188
e 125 203
e 125 224
e 125 240
e 125 248
e 126 130
e 126 131
e 126 133
e 126 138
e 126 148
e 126 149
e 126 179
e 126 198
e 126 204
e 126 219
e 126 225
e 126 227
e 126 234
e 126 236
e 126 250
e 127 149
e 127 152
e 127 162
e 127 168
e 127 180
e 127 188
e 127 192
e 127 199
e 127 214
e 127 218
e 127 243
e 127 245
e 128 132
e 128 134
e 128 137
e 128 152
e 128 160
e 128 165
e 128 169
e 128 178
e 128 186
e 128 189
e 128 205
e 128 216
e 128 233
e 128 234
e 128 250
e 129 134
e 129 136
e 129 142
e 129 172
e 129 173
e 129 192
e 129 194
e 129 207
e 129 222
e 129 242
e 130 139
e 130 140
e 130 142
e 130 144
e 130 160
e 130 172
e 130 191
e 130 202
e 130 225
e 130 234
e 130 240
e 131 132
e 131 144
e 131 158
e 131 161
e 131 162
e 131 165
e 131 184
e 131 197
e 131 204
e 131 217
e 131 237
e 132 167
e 132 184
e 132 193
e 132 194
e 132 198
e 132 203
e 132 206
e 132 210
e 132 217
e 132 219
e 132 220
e 132 231
e 132 244
e 133 139
e 133 147
e 133 150
e 133 156
e 133 162
e 133 163
e 133 172
e 133 183
e 133 215
e 133 239
e 134 138
e 134 140
e 134 143
e 134 146
e 134 153
e 134 156
e 134 175
e 134 182
e 134 187
e 134 189
e 134 198
e 134 201
e 134 205
e 134 230
e 134 241
e 135 150
e 135 172
e 135 176
e 135 177
e 135 185
e 135 189
e 135 191
e 135 195
e 135 202
e 135 206
e 135 218
e 135 223
e 135 225
e 135 236
e 135 241
e 135 244
e 135 246
e 136 158
e 136 179
e 136 195
e 136 199
e 136 217
e 136 219
e 136 220
e 136 224
e 136 236
e 136 248
e 137 140
e 137 158
e 137 175
e 137 188
e 137 196
e 137 201
e 137 204
e 137 213
e 137 217
e 137 245
e 138 139
e 138 141
e 138 146
e 138 177
e 138 182
e 138 193
e 138 243
e 139 158
e 139 160
e 139 174
e 139 177
e 139 181
e 139 185
e 139 192
e 139 204
e 139 224
e 139 225
e 139 235
e 139 238
e 139 244
e 139 249
e 140 142
e 140 143
e 140 153
e 140 159
e 140 168
e 140 169
e 140 172
e 140 179
e 140 186
e 140 193
e 140 204
e 140 212
e 140 213
e 140 217
e 140 244
e 140 246
e 141 148
e 141 150
e 141 156
e 141 161
e 141 175
e 141 190
e 141 192
e 141 196
e 141 202
e 141 211
e 141 229
e 141 243
e 141 245
e 141 246
e 141 248
e 142 144
e 142 153
e 142 160
e 142 169
e 142 185
e 142 226
e 142 232
e 142 238
e 142 242
e 142 246
e 142 249
e 143 156
e 143 170
e 143 180
e 143 191
e 143 195
e 143 198
e 143 200
e 143 226
e 143 235
e 144 150
e 144 154
e 144 156
e 144 165
e 144 166
e 144 171
e 144 210
e 144 213
e 145 167
e 145 178
e 145 190
e 145 192
e 145 193
e 145 199
e 145 227
e 145 231
e 145 246
e 145 249
e 146 154
e 146 155
e 146 156
e 146 158
e 146 170
e 146 174
e 146 185
e 146 194
e 146 205
e 146 216
e 146 221
e 146 222
e 146 232
e 146 233
e 146 235
e 146 236
e 147 148
e 147 152
e 147 181
e 147 191
e 147 196
e 147 210
e 147 225
e 147 250
e 148 161
e 148 179
e 148 181
e 148 195
e 148 196
e 148 205
e 148 208
e 148 217
e 148 218
e 148 220
e 148 236
e 148 247
e 148 248
e 149 159
e 149 175
e 149 181
e 149 185
e 149 204
e 149 218
e 149 223
e 149 229
e 149 239
e 150 153
e 150 173
e 150 174
e 150 176
e 150 178
e 150 179
e 150 180
e 150 184
e 150 192
e 150 193
e 150 196
e 150 223
e 150 231
e 151 154
e 151 225
e 151 227
e 151 232
e 151 241
e 151 243
e 151 248
e 152 172
e 152 179
e 152 181
e 152 191
e 152 194
e 152 201
e 152 206
e 152 216
e 152 233
e 153 161
e 153 165
e 153 168
e 153 201
e 153 222
e 153 224
e 153 229
e 153 233
e 153 237
e 153 245
e 154 157
e 154 208
e 154 233
e 154 234
e 155 162
e 155 184
e 155 204
e 155 215
e 155 228
e 155 230
e 155 242
e 155 243
e 156 195
e 156 219
e 156 241
e 156 242
e 156 249
e 157 168
e 157 180
e 157 182
e 157 184
e 157 191
e 157 194
e 157 200
e 157 203
e 157 213
e 157 229
e 158 159
e 158 160
e 158 161
e 158 164
e 158 166
e 158 188
e 158 189
e 158 190
e 158 211
e 158 220
e 158 238
e 159 173
e 159 175
e 159 177
e 159 178
e 159 182
e 159 185
e 159 197
e 159 215
e 159 221
e 159 228
e 159 230
e 159 232
e 159 234
e 159 240
e 159 243
e 160 206
e 160 249
e 160 250
e 161 166
e 161 171
e 161 177
e 161 180
e 161 183
e 161 185
e 161 201
e 161 202
e 161 212
e 161 229
e 162 163
e 162 194
e 162 225
e 162 241
e 162 245
e 163 164
e 163 173
e 163 199
e 163 200
e 163 202
e 163 206
e 163 211
e 163 218
e 163 221
e 164 171
e 164 180
e 164 191
e 164 192
e 164 197
e 164 200
e 164 207
e 165 170
e 165 187
e 165 192
e 165 205
e 165 218
e 165 225
e 165 229
e 165 230
e 165 231
e 165 238
e 165 243
e 166 178
e 166 183
e 166 188
e 166 192
e 166 208
e 166 219
e 166 220
e 166 225
e 167 188
e 167 200
e 167 205
e 167 233
e 167 237
e 168 169
e 168 180
e 168 188
e 168 208
e 168 209
e 168 232
e 168 234
e 168 240
e 168 245
e 168 246
e 169 178
e 169 197
e 169 211
e 169 212
e 169 216
e 169 219
e 169 226
e 169 234
e 169 240
e 170 174
e 170 188
e 170 189
e 170 191
e 170 194
e 170 210
e 170 219
e 170 223
e 170 238
e 170 250
e 171 172
e 171 176
e 171 184
e 171 194
e 171 204
e 171 241
e 171 250
e 172 183
e 172 196
e 172 198
e 172 205
e 172 230
e 173 177
e 173 185
e 173 187
e 173 196
e 173 198
e 173 203
e 173 205
e 173 230
e 174 194
e 174 198
e 174 199
e 174 204
e 174 215
e 174 220
e 175 185
e 175 192
e 175 195
e 175 204
e 175 224
e 175 243
e 175 244
e 176 179
e 176 184
e 176 190
e 176 200
e 176 201
e 176 216
e 176 225
e 176 229
e 176 245
e 176 250
e 177 183
e 177 206
e 177 207
e 177 228
e 177 230
e 177 231
e 177 241
e 178 211
e 178 218
e 178 222
e 178 229
e 179 181
e 179 203
e 179 222
e 179 237
e 179 244
e 180 182
e 180 198
e 180 203
e 180 227
e 180 239
e 180 244
e 180 250
e 181 187
e 181 197
e 181 204
e 181 207
e 181 215
e 181 223
e 181 224
e 181 230
e 181 238
e 181 245
e 182 184
e 182 199
e 182 202
e 182 210
e 182 213
e 182 235
e 182 237
e 182 243
e 183 185
e 183 194
e 183 200
e 183 209
e 183 210
e 183 219
e 183 224
e 183 238
e 183 239
e 183 244
e 183 246
e 184 204
e 184 214
e 184 228
e 184 229
e 184 238
e 185 186
e 185 191
e 185 212
e 185 236
e 185 238
e 185 249
e 186 188
e 186 196
e 186 198
e 186 208
e 186 210
e 186 211
e 186 212
e 186 217
e 186 229
e 186 235
e 186 240
e 186 243
e 186 247
e 187 192
e 187 200
e 187 202
e 187 225
e 187 231
e 188 191
e 188 201
e 188 241
e 189 195
e 189 229
e 189 240
e 189 248
e 190 195
e 190 198
e 190 220
e 190 229
e 190 237
e 190 238
e 190 246
e 191 192
e 191 194
e 191 206
e 191 220
e 191 226
e 191 231
e 191 250
e 192 205
e 192 208
e 192 209
e 192 213
e 192 223
e 192 237
e 193 210
e 193 227
e 194 198
e 194 210
e 194 220
e 194 238
e 194 244
e 195 198
e 195 204
e 195 211
e 195 218
e 195 219
e 195 220
e 195 230
e 195 241
e 195 243
e 196 199
e 196 210
e 196 214
e 196 244
e 196 247
e 197 205
e 197 213
e 198 202
e 198 212
e 198 224
e 198 225
e 198 244
e 199 208
e 199 217
e 199 218
e 199 220
e 199 222
e 199 240
e 200 212
e 200 222
e 200 228
e 200 237
e 200 238
e 200 243
e 201 207
e 201 214
e 201 226
e 201 228
e 201 229
e 201 234
e 202 206
e 202 208
e 202 213
e 202 223
e 202 240
e 202 242
e 203 205
e 203 225
e 203 232
e 203 235
e 203 247
e 204 217
e 204 218
e 204 224
e 204 227
e 204 228
e 204 240
e 205 208
e 205 219
e 205 235
e 205 236
e 205 239
e 205 247
e 205 248
e 206 212
e 206 222
e 206 225
e 206 232
e 206 238
e 206 243
e 206 247
e 206 249
e 207 225
e 207 227
e 208 232
e 208 240
e 209 210
e 209 219
e 209 234
e 210 213
e 210 221
e 210 223
e 210 228
e 210 233
e 210 240
e 211 221
e 211 235
e 211 248
e 212 216
e 212 217
e 212 239
e 212 245
e 212 248
e 213 214
e 213 215
e 213 230
e 213 250
e 214 230
e 214 231
e 214 236
e 215 221
e 215 229
e 215 241
e 216 235
e 217 220
e 217 228
e 218 245
e 220 232
e 220 233
e 220 242
e 220 248
e 221 228
e 222 230
e 222 234
e 222 242
e 223 225
e 223 247
e 224 235
e 224 241
e 224 246
e 225 231
e 225 241
e 225 244
e 226 238
e 226 242
e 226 246
e 227 233
e 228 233
e 228 241
e 229 236
e 229 243
e 229 246
e 229 250
e 230 250
e 231 241
e 231 242
e 232 238
e 233 234
e 233 242
e 234 244
e 235 240
e 235 246
e 236 241
e 236 242
e 236 246
e 236 247
e 237 242
e 237 246
e 237 250
e 239 241
e 239 246
e 241 244
e 241 246
e 244 246
